s td 15 46 60
b 1 1 2 3 5 6 7 8 10 13 14 15 17 18 23 24 29 31 32 34 35 36 37 39 41 42 43 49 52 54 55 57 58 60
b 2 1 2 4 5 6 7 8 10 11 12 13 14 15 17 18 19 20 23 24 25 27 29 30 31 32 34 35 36 37 38 39 41 42 43 46 47 49 51 52 53 54 55 56 57 58 60
b 3 1 2 4 6 7 8 9 10 11 13 14 15 17 18 19 20 23 24 25 27 29 30 31 32 34 35 36 37 38 39 41 42 43 46 47 49 51 52 53 54 55 56 57 58 60
b 4 1 4 6 7 9 10 11 13 14 15 16 17 18 19 20 23 24 25 27 29 30 31 32 34 35 36 37 38 39 41 42 43 46 47 49 51 52 53 54 55 56 57 58 60
b 5 1 4 6 7 9 10 11 13 14 15 16 17 18 19 20 23 24 25 27 28 29 30 31 32 34 36 38 39 41 42 43 46 47 49 51 52 53 54 55 56 57 58 60
b 6 1 7 9 10 13 15 16 17 19 20 23 24 25 27 28 29 30 32 34 36 38 41 42 43 45 46 47 49 51 53 54 56 57 58 60
b 7 7 10 13 15 16 17 19 20 23 24 25 27 28 30 32 36 38 41 43 45 47 50 51 53 57 58 60
b 8 1 2 4 5 6 7 8 11 12 13 14 15 17 18 19 20 22 23 24 25 27 29 30 31 32 34 35 36 37 38 39 41 42 43 46 47 49 51 52 53 55 56 57 58 60
b 9 2 4 5 6 7 8 11 12 13 14 15 17 18 19 20 22 23 24 25 27 29 30 31 32 33 34 35 36 37 38 39 41 42 43 46 47 49 51 52 53 55 56 57 58 60
b 10 2 4 5 6 7 8 11 12 13 14 15 17 18 19 20 22 23 24 25 27 29 30 31 32 33 34 35 37 38 39 41 42 43 46 47 49 51 52 53 56 57 58 59 60
b 11 2 4 5 6 7 8 11 12 13 14 15 17 19 20 22 24 25 27 29 30 31 32 33 34 35 38 39 41 42 43 46 47 48 49 51 52 53 56 57 58 59 60
b 12 2 4 5 7 8 11 12 13 14 17 19 20 24 25 27 29 30 31 32 33 38 39 40 41 42 43 47 48 49 51 52 53 56 57 58 59 60
b 13 2 5 8 17 19 21 24 25 30 31 32 33 38 39 40 41 51 52 53 56 58 59
b 14 1 5 6 7 12 13 15 17 19 22 26 27 29 34 36 42 43 46 47 49 57 60
b 15 3 5 6 7 8 10 14 15 23 24 31 32 34 41 43 44 52 54 55 57 58 60
1 2
1 15
2 3
2 8
3 4
4 5
5 6
6 7
8 9
8 14
9 10
10 11
11 12
12 13
